NAME : X-n181-k23
COMMENT : "Generated by Uchoa, Pecin, Pessoa, Poggi, Subramanian, and Vidal (2013)"
TYPE : CVRP
DIMENSION : 181
EDGE_WEIGHT_TYPE : EUC_2D
CAPACITY : 8
NODE_COORD_SECTION
1 894 510
2 463 887
3 704 177
4 424 368
5 420 800
6 492 610
7 607 749
8 455 819
9 343 457
10 387 275
11 466 653
12 607 348
13 428 546
14 764 848
15 403 298
16 315 738
17 457 902
18 597 584
19 219 552
20 526 359
21 414 340
22 398 401
23 579 780
24 518 563
25 531 597
26 501 827
27 687 200
28 670 234
29 488 981
30 673 222
31 359 256
32 537 675
33 788 95
34 433 820
35 397 770
36 444 799
37 367 288
38 253 774
39 570 853
40 379 843
41 388 736
42 565 785
43 608 193
44 430 657
45 775 142
46 721 600
47 434 876
48 683 311
49 592 740
50 500 315
51 428 915
52 710 258
53 709 272
54 426 803
55 409 639
56 535 572
57 502 916
58 528 728
59 351 371
60 657 782
61 493 265
62 751 112
63 469 594
64 720 165
65 463 624
66 751 96
67 496 833
68 565 459
69 471 361
70 448 969
71 361 559
72 529 582
73 515 809
74 497 434
75 429 879
76 483 715
77 264 574
78 793 916
79 448 386
80 325 199
81 327 370
82 484 861
83 432 873
84 412 853
85 641 155
86 712 163
87 456 612
88 301 921
89 480 400
90 700 165
91 690 213
92 478 811
93 665 56
94 430 368
95 414 943
96 709 235
97 296 297
98 380 773
99 459 423
100 498 910
101 464 939
102 677 704
103 420 381
104 398 872
105 554 512
106 486 614
107 584 809
108 429 336
109 461 529
110 470 360
111 494 769
112 407 661
113 687 711
114 454 745
115 593 471
116 537 648
117 666 111
118 452 797
119 430 742
120 481 958
121 636 741
122 405 576
123 666 234
124 603 683
125 473 466
126 378 867
127 611 739
128 342 688
129 446 280
130 585 888
131 496 418
132 711 27
133 791 198
134 660 828
135 414 839
136 504 592
137 665 921
138 448 320
139 550 637
140 637 758
141 743 166
142 504 869
143 708 432
144 664 343
145 499 493
146 878 706
147 396 920
148 275 924
149 727 669
150 728 203
151 367 739
152 444 808
153 755 303
154 445 864
155 561 848
156 597 660
157 386 700
158 652 240
159 344 301
160 209 369
161 571 812
162 454 353
163 497 781
164 697 220
165 296 787
166 517 506
167 409 893
168 339 886
169 518 788
170 719 99
171 607 654
172 218 312
173 533 847
174 523 938
175 598 705
176 481 772
177 461 431
178 375 722
179 460 681
180 524 610
181 771 752
PICKUP_AND_DELIVERY_SECTION
1 0 0 1000000000 0 0 0
2 0 0 1000000000 0 0.522 0.478
3 0 0 1000000000 0 0.2514 0.7486
4 0 0 1000000000 0 0.8679 0.1321
5 0 0 1000000000 0 0.525 0.475
6 0 0 1000000000 0 0.8066 0.1934
7 0 0 1000000000 0 0.8104 0.1896
8 0 0 1000000000 0 0.5556 0.4444
9 0 0 1000000000 0 0.7505 0.2495
10 0 0 1000000000 0 0.7106 0.2894
11 0 0 1000000000 0 0.7136 0.2864
12 0 0 1000000000 0 0.5733 0.4267
13 0 0 1000000000 0 0.7839 0.2161
14 0 0 1000000000 0 0.9009 0.09906
15 0 0 1000000000 0 0.7395 0.2605
16 0 0 1000000000 0 0.4268 0.5732
17 0 0 1000000000 0 0.5067 0.4933
18 0 0 1000000000 0 0.9782 0.02178
19 0 0 1000000000 0 0.3967 0.6033
20 0 0 1000000000 0 0.6825 0.3175
21 0 0 1000000000 0 0.8213 0.1787
22 0 0 1000000000 0 0.9925 0.00748
23 0 0 1000000000 0 0.7423 0.2577
24 0 0 1000000000 0 0.9201 0.07993
25 0 0 1000000000 0 0.8894 0.1106
26 0 0 1000000000 0 0.6058 0.3942
27 0 0 1000000000 0 0.2911 0.7089
28 0 0 1000000000 0 0.3493 0.6507
29 0 0 1000000000 0 0.4975 0.5025
30 0 0 1000000000 0 0.3299 0.6701
31 0 0 1000000000 0 0.7131 0.2869
32 0 0 1000000000 0 0.7956 0.2044
33 0 0 1000000000 0 0.1206 0.8794
34 0 0 1000000000 0 0.528 0.472
35 0 0 1000000000 0 0.5156 0.4844
36 0 0 1000000000 0 0.5557 0.4443
37 0 0 1000000000 0 0.7847 0.2153
38 0 0 1000000000 0 0.3269 0.6731
39 0 0 1000000000 0 0.6682 0.3318
40 0 0 1000000000 0 0.4496 0.5504
41 0 0 1000000000 0 0.5272 0.4728
42 0 0 1000000000 0 0.7197 0.2803
43 0 0 1000000000 0 0.3174 0.6826
44 0 0 1000000000 0 0.6545 0.3455
45 0 0 1000000000 0 0.1832 0.8168
46 0 0 1000000000 0 0.8322 0.1678
47 0 0 1000000000 0 0.4954 0.5046
48 0 0 1000000000 0 0.4553 0.5447
49 0 0 1000000000 0 0.8 0.2
50 0 0 1000000000 0 0.63 0.37
51 0 0 1000000000 0 0.4678 0.5322
52 0 0 1000000000 0 0.3634 0.6366
53 0 0 1000000000 0 0.3836 0.6164
54 0 0 1000000000 0 0.5305 0.4695
55 0 0 1000000000 0 0.6401 0.3599
56 0 0 1000000000 0 0.9353 0.06469
57 0 0 1000000000 0 0.548 0.452
58 0 0 1000000000 0 0.7253 0.2747
59 0 0 1000000000 0 0.9461 0.05391
60 0 0 1000000000 0 0.8402 0.1598
61 0 0 1000000000 0 0.5375 0.4625
62 0 0 1000000000 0 0.1491 0.8509
63 0 0 1000000000 0 0.7896 0.2104
64 0 0 1000000000 0 0.2292 0.7708
65 0 0 1000000000 0 0.742 0.258
66 0 0 1000000000 0 0.1278 0.8722
67 0 0 1000000000 0 0.5954 0.4046
68 0 0 1000000000 0 0.8124 0.1876
69 0 0 1000000000 0 0.7665 0.2335
70 0 0 1000000000 0 0.4623 0.5377
71 0 0 1000000000 0 0.6458 0.3542
72 0 0 1000000000 0 0.9089 0.09107
73 0 0 1000000000 0 0.6366 0.3634
74 0 0 1000000000 0 0.8732 0.1268
75 0 0 1000000000 0 0.4881 0.5119
76 0 0 1000000000 0 0.6755 0.3245
77 0 0 1000000000 0 0.4599 0.5401
78 0 0 1000000000 0 0.8657 0.1343
79 0 0 1000000000 0 0.8616 0.1384
80 0 0 1000000000 0 0.6123 0.3877
81 0 0 1000000000 0 0.8838 0.1162
82 0 0 1000000000 0 0.5621 0.4379
83 0 0 1000000000 0 0.4948 0.5052
84 0 0 1000000000 0 0.483 0.517
85 0 0 1000000000 0 0.2418 0.7582
86 0 0 1000000000 0 0.2289 0.7711
87 0 0 1000000000 0 0.7451 0.2549
88 0 0 1000000000 0 0.3268 0.6732
89 0 0 1000000000 0 0.8333 0.1667
90 0 0 1000000000 0 0.2357 0.7643
91 0 0 1000000000 0 0.3087 0.6913
92 0 0 1000000000 0 0.5894 0.4106
93 0 0 1000000000 0 0.08421 0.9158
94 0 0 1000000000 0 0.8558 0.1442
95 0 0 1000000000 0 0.439 0.561
96 0 0 1000000000 0 0.3315 0.6685
97 0 0 1000000000 0 0.9966 0.00337
98 0 0 1000000000 0 0.4916 0.5084
99 0 0 1000000000 0 0.9216 0.07843
100 0 0 1000000000 0 0.5473 0.4527
101 0 0 1000000000 0 0.4941 0.5059
102 0 0 1000000000 0 0.9616 0.03835
103 0 0 1000000000 0 0.9071 0.09286
104 0 0 1000000000 0 0.4564 0.5436
105 0 0 1000000000 0 0.9242 0.07581
106 0 0 1000000000 0 0.7915 0.2085
107 0 0 1000000000 0 0.7219 0.2781
108 0 0 1000000000 0 0.7832 0.2168
109 0 0 1000000000 0 0.8715 0.1285
110 0 0 1000000000 0 0.766 0.234
111 0 0 1000000000 0 0.6424 0.3576
112 0 0 1000000000 0 0.6157 0.3843
113 0 0 1000000000 0 0.9662 0.03376
114 0 0 1000000000 0 0.6094 0.3906
115 0 0 1000000000 0 0.7943 0.2057
116 0 0 1000000000 0 0.8287 0.1713
117 0 0 1000000000 0 0.1667 0.8333
118 0 0 1000000000 0 0.5671 0.4329
119 0 0 1000000000 0 0.5795 0.4205
120 0 0 1000000000 0 0.5021 0.4979
121 0 0 1000000000 0 0.8583 0.1417
122 0 0 1000000000 0 0.7031 0.2969
123 0 0 1000000000 0 0.3514 0.6486
124 0 0 1000000000 0 0.8829 0.1171
125 0 0 1000000000 0 0.9852 0.0148
126 0 0 1000000000 0 0.436 0.564
127 0 0 1000000000 0 0.8268 0.1732
128 0 0 1000000000 0 0.4971 0.5029
129 0 0 1000000000 0 0.6278 0.3722
130 0 0 1000000000 0 0.6588 0.3412
131 0 0 1000000000 0 0.8427 0.1573
132 0 0 1000000000 0 0.03797 0.962
133 0 0 1000000000 0 0.2503 0.7497
134 0 0 1000000000 0 0.7971 0.2029
135 0 0 1000000000 0 0.4934 0.5066
136 0 0 1000000000 0 0.8514 0.1486
137 0 0 1000000000 0 0.722 0.278
138 0 0 1000000000 0 0.7143 0.2857
139 0 0 1000000000 0 0.8634 0.1366
140 0 0 1000000000 0 0.8404 0.1596
141 0 0 1000000000 0 0.2234 0.7766
142 0 0 1000000000 0 0.58 0.42
143 0 0 1000000000 0 0.6102 0.3898
144 0 0 1000000000 0 0.5166 0.4834
145 0 0 1000000000 0 0.988 0.01202
146 0 0 1000000000 0 0.8041 0.1959
147 0 0 1000000000 0 0.4304 0.5696
148 0 0 1000000000 0 0.2976 0.7024
149 0 0 1000000000 0 0.9202 0.07978
150 0 0 1000000000 0 0.2788 0.7212
151 0 0 1000000000 0 0.4966 0.5034
152 0 0 1000000000 0 0.5495 0.4505
153 0 0 1000000000 0 0.4013 0.5987
154 0 0 1000000000 0 0.515 0.485
155 0 0 1000000000 0 0.6616 0.3384
156 0 0 1000000000 0 0.9045 0.09545
157 0 0 1000000000 0 0.5514 0.4486
158 0 0 1000000000 0 0.3681 0.6319
159 0 0 1000000000 0 0.875 0.125
160 0 0 1000000000 0 0.5664 0.4336
161 0 0 1000000000 0 0.7032 0.2968
162 0 0 1000000000 0 0.7775 0.2225
163 0 0 1000000000 0 0.6364 0.3636
164 0 0 1000000000 0 0.3156 0.6844
165 0 0 1000000000 0 0.3761 0.6239
166 0 0 1000000000 0 0.9787 0.02128
167 0 0 1000000000 0 0.458 0.542
168 0 0 1000000000 0 0.3826 0.6174
169 0 0 1000000000 0 0.6574 0.3426
170 0 0 1000000000 0 0.1377 0.8623
171 0 0 1000000000 0 0.9281 0.07187
172 0 0 1000000000 0 0.6987 0.3013
173 0 0 1000000000 0 0.6293 0.3707
174 0 0 1000000000 0 0.5576 0.4424
175 0 0 1000000000 0 0.8482 0.1518
176 0 0 1000000000 0 0.6231 0.3769
177 0 0 1000000000 0 0.9349 0.06508
178 0 0 1000000000 0 0.5194 0.4806
179 0 0 1000000000 0 0.6755 0.3245
180 0 0 1000000000 0 0.859 0.141
181 0 0 1000000000 0 0.9754 0.02464
